&CONTROL
  calculation = 'nscf'
  etot_conv_thr = 1.0000000000d-06
  outdir = './out/'
  prefix = 'LAFEO3'
  pseudo_dir = './pseudo/'
/
&SYSTEM
  degauss = 3.0d-03
  ecutrho = 180
  ecutwfc = 30
  ibrav = 0
  nat = 20
  nspin = 2
  ntyp = 4
  occupations = 'smearing'
  smearing = 'fermi-dirac'
  starting_magnetization(1) = 3.1250000000d-01
  starting_magnetization(2) = -3.1250000000d-01
/
&ELECTRONS
  conv_thr = 1.0d-6
  electron_maxstep = 100
  mixing_beta = 2.0d-01
/
ATOMIC_SPECIES
Fe      55.845 	  Fe.pbe-spn-rrkjus_psl.1.0.0
Fe1     55.845 	  Fe.pbe-spn-rrkjus_psl.1.0.0
La      138.90547 La.pbe-spfn-rrkjus_psl.1.0.0
O       15.9994   O.pbe-n-rrkjus_psl.1.0.0
ATOMIC_POSITIONS (crystal)
La  0.009381 0.961741 0.75
La  0.509381 0.538259 0.25
La  0.490619 0.461741 0.75
La  0.990619 0.038259 0.25
Fe  0.0      0.5      0.5
Fe  0.5      0.0      0.0
Fe1 0.0      0.5      0.0
Fe1 0.5      0.0      0.50
O   0.712594 0.287975 0.453725
O   0.212594 0.212025 0.546275
O   0.787406 0.787975 0.046275
O   0.287406 0.712025 0.953725
O   0.287406 0.712025 0.546275
O   0.787406 0.787975 0.453725
O   0.212594 0.212025 0.953725
O   0.712594 0.287975 0.046275
O   0.08612  0.478265 0.25
O   0.58612  0.021735 0.75
O   0.41388  0.978265 0.25
O   0.91388  0.521735 0.75
K_POINTS automatic
8 8 8 1 1 1
HUBBARD (ortho-atomic)
U Fe-3d 4.64
U Fe1-3d 4.64
CELL_PARAMETERS angstrom
      5.6260000000       0.0000000000       0.0000000000
      0.0000000000       5.6080000000       0.0000000000
      0.0000000000       0.0000000000       7.9400000000