&projwfc
prefix = 'LAFEO3'
outdir = './out/'
/